
--- Job bchfcnet.gms Start 02/08/22 17:24:19 34.3.0 rac355f3 WEX-WEI x86 64bit/MS Windows
--- Applying:
    C:\GAMS\34\gmsprmNT.txt
--- GAMS Parameters defined
    Input C:\Users\dekhi\Desktop\gamsworld\FCNetLib\test\bchfcnet.gms
    PageSize 0
    ScrDir C:\Users\dekhi\Desktop\gamsworld\FCNetLib\test\225a\
    SysDir C:\GAMS\34\
    LogOption 3
    ErrMsg 1
    ErrorLog 99
    IDE 1
    ResLim 3600
    LstTitleLeftAligned 1
Licensee: Eval License                                   S211214|0002AW-GEN
          Ostfalia Hochschule fuer angewandte Wissenschaften        DCE1645
          C:\Users\dekhi\Documents\GAMS\gamslice.txt
          License Admin: Mohamed Ali Dekhil, dekhil.medali@gmail.com       
          Evaluation license: Not for commercial or production use
GAMS 34.3.0   Copyright (C) 1987-2021 GAMS Development. All rights reserved
--- Starting compilation
--- bchfcnet.gms(34) 2 Mb
--- . decl.gms(15) 2 Mb
--- bchfcnet.gms(38) 2 Mb
--- . k20x380e.inc(791) 3 Mb
--- bchfcnet.gms(67) 3 Mb
--- . equs.gms(20) 3 Mb
--- bchfcnet.gms(97) 3 Mb
--- call rm -f bchout_i.gdx startcut.txt startheur.txt cuthist.gdx agap.txt rgap.txt cntfail.txt
--- bchfcnet.gms(118) 3 Mb
--- Starting execution: elapsed 0:00:00.091
--- bchfcnet.gms(849) 4 Mb
--- GDX File (execute_unload) C:\Users\dekhi\Desktop\gamsworld\FCNetLib\test\net.gdx
--- bchfcnet.gms(940) 4 Mb
--- GDXin=C:\Users\dekhi\Desktop\gamsworld\FCNetLib\test\points\k20x380e.gdx
--- GDX File (execute_load) C:\Users\dekhi\Desktop\gamsworld\FCNetLib\test\points\k20x380e.gdx
--- Generating MIP model master
--- bchfcnet.gms(944) 4 Mb
---   401 rows  761 columns  2,281 non-zeroes
---   380 discrete-columns
--- Executing CPLEX (Solvelink=2): elapsed 0:00:00.124

IBM ILOG CPLEX   34.3.0 rac355f3 Released Feb 25, 2021 WEI x86 64bit/MS Window

--- GAMS/Cplex Link licensed for continuous and discrete problems.

Reading parameter(s) from "C:\Users\dekhi\Desktop\gamsworld\FCNetLib\test\cplex.op2"
>>  mipstart 1
Finished reading from "C:\Users\dekhi\Desktop\gamsworld\FCNetLib\test\cplex.op2"

--- Space for names approximately 0.02 Mb
--- Use option 'names no' to turn use of names off
--- GMO memory 0.63 Mb (peak 0.64 Mb)
--- Dictionary memory 0.00 Mb
--- Cplex 20.1.0.0 link memory 0.02 Mb (peak 0.08 Mb)
--- Starting Cplex

Version identifier: 20.1.0.0 | 2020-11-10 | 9bedb6d68
CPXPARAM_Threads                                 1
CPXPARAM_MIP_Display                             4
CPXPARAM_TimeLimit                               3600
CPXPARAM_MIP_Tolerances_AbsMIPGap                0
CPXPARAM_MIP_Tolerances_MIPGap                   0
Generic callback                                 0x50
Processing 1 MIP starts.
MIP start 'm1' defined solution with objective 6904.0000.
1 of 1 MIP starts provided solutions.
MIP start 'm1' defined initial solution with objective 6904.0000.
Tried aggregator 1 time.
MIP Presolve eliminated 19 rows and 1 columns.
MIP Presolve added 38 rows and 0 columns.
Reduced MIP has 419 rows, 760 columns, and 1558 nonzeros.
Reduced MIP has 380 binaries, 0 generals, 0 SOSs, and 0 indicators.
Presolve time = 0.00 sec. (2.12 ticks)
Probing time = 0.00 sec. (0.08 ticks)
Tried aggregator 1 time.
Detecting symmetries...
Reduced MIP has 419 rows, 760 columns, and 1558 nonzeros.
Reduced MIP has 380 binaries, 0 generals, 0 SOSs, and 0 indicators.
Presolve time = 0.02 sec. (2.22 ticks)
Probing time = 0.00 sec. (0.08 ticks)
MIP emphasis: balance optimality and feasibility.
MIP search method: dynamic search.
Parallel mode: none, using 1 thread.
Tried aggregator 1 time.
LP Presolve eliminated 361 rows and 361 columns.
Aggregator did 19 substitutions.
Reduced LP has 39 rows, 380 columns, and 798 nonzeros.
Presolve time = 0.00 sec. (0.38 ticks)

Iteration log . . .
Iteration:     1   Dual objective     =          1361.000000
Initializing dual steep norms . . .
Root relaxation solution time = 0.00 sec. (0.66 ticks)

        Nodes                                         Cuts/
   Node  Left     Objective  IInf  Best Integer    Best Bound    ItCnt     Gap

*     0+    0                         6904.0000        0.0000           100.00%
Found incumbent of value 6904.000000 after 0.02 sec. (6.12 ticks)
      0     0     2013.3500     5     6904.0000     2013.3500        9   70.84%
      0     0     6747.4127     9     6904.0000      Cuts: 30       40    2.27%
      0     0     6801.0368     9     6904.0000      Cuts: 23       55    1.49%
      0     0     6848.2657    17     6904.0000      Cuts: 19       71    0.81%
      0     0     6867.7332     7     6904.0000      Cuts: 37       80    0.53%
      0     0     6878.2753    13     6904.0000       Cuts: 5       89    0.37%
Detecting symmetries...
      0     0        cutoff           6904.0000                    105    0.00%
Elapsed time = 0.06 sec. (41.20 ticks, tree = 0.01 MB, solutions = 1)

Cover cuts applied:  9
Flow cuts applied:  8
Mixed integer rounding cuts applied:  22
Flow path cuts applied:  4
Multi commodity flow cuts applied:  5
Lift and project cuts applied:  1
Gomory fractional cuts applied:  4

Root node processing (before b&c):
  Real time             =    0.06 sec. (41.24 ticks)
Sequential b&c:
  Real time             =    0.00 sec. (0.00 ticks)
                          ------------
Total (root+branch&cut) =    0.06 sec. (41.24 ticks)

--- MIP status (101): integer optimal solution.
--- Cplex Time: 0.06sec (det. 41.24 ticks)

--- Fixing integer variables and solving final LP...

Version identifier: 20.1.0.0 | 2020-11-10 | 9bedb6d68
CPXPARAM_Advance                                 2
CPXPARAM_Threads                                 1
CPXPARAM_MIP_Display                             4
CPXPARAM_TimeLimit                               3600
CPXPARAM_MIP_Tolerances_AbsMIPGap                0
CPXPARAM_MIP_Tolerances_MIPGap                   0
Tried aggregator 1 time.
LP Presolve eliminated 400 rows and 761 columns.
All rows and columns eliminated.
Presolve time = 0.00 sec. (0.26 ticks)

--- Fixed MIP status (1): optimal.
--- Cplex Time: 0.00sec (det. 0.44 ticks)


Proven optimal solution
MIP Solution:         6904.000000    (105 iterations, 0 nodes)
Final Solve:          6904.000000    (0 iterations)

Best possible:        6904.000000
Absolute gap:            0.000000
Relative gap:            0.000000

--- Reading solution for model master
*** Status: Normal completion
--- Job bchfcnet.gms Stop 02/08/22 17:24:19 elapsed 0:00:00.212
